\* Maximize_Seat_and_Greet_Profit *\
Maximize
OBJ: 850 couches + 650 love_seats
Subject To
_C1: 120 couches + 70 love_seats <= 9010
_C2: 40 couches + 25 love_seats <= 3500
_C3: 3 couches + 2 love_seats <= 250
Bounds
 50 <= couches
 40 <= love_seats
End
